c Generated map
c Size: 9 * 9, weights in range: 1 to 10, walls: False, with ratio 0.0
c dim 3 of 7
c
p sp 81 144
c graph contains 81 nodes and 144 arcs
c
a 1 10 3
a 10 1 3
a 1 2 9
a 2 1 9
a 2 11 7
a 11 2 7
a 2 3 8
a 3 2 8
a 3 12 4
a 12 3 4
a 3 4 3
a 4 3 3
a 4 13 5
a 13 4 5
a 4 5 7
a 5 4 7
a 5 14 2
a 14 5 2
a 5 6 3
a 6 5 3
a 6 15 10
a 15 6 10
a 6 7 7
a 7 6 7
a 7 16 2
a 16 7 2
a 7 8 1
a 8 7 1
a 8 17 8
a 17 8 8
a 8 9 9
a 9 8 9
a 9 18 6
a 18 9 6
a 10 19 10
a 19 10 10
a 10 11 10
a 11 10 10
a 11 20 9
a 20 11 9
a 11 12 4
a 12 11 4
a 12 21 1
a 21 12 1
a 12 13 1
a 13 12 1
a 13 22 5
a 22 13 5
a 13 14 5
a 14 13 5
a 14 23 4
a 23 14 4
a 14 15 6
a 15 14 6
a 15 24 8
a 24 15 8
a 15 16 6
a 16 15 6
a 16 25 2
a 25 16 2
a 16 17 5
a 17 16 5
a 17 26 10
a 26 17 10
a 17 18 6
a 18 17 6
a 18 27 10
a 27 18 10
a 19 28 7
a 28 19 7
a 19 20 4
a 20 19 4
a 20 29 4
a 29 20 4
a 20 21 8
a 21 20 8
a 21 30 4
a 30 21 4
a 21 22 4
a 22 21 4
a 22 31 6
a 31 22 6
a 22 23 9
a 23 22 9
a 23 32 8
a 32 23 8
a 23 24 1
a 24 23 1
a 24 33 2
a 33 24 2
a 24 25 7
a 25 24 7
a 25 34 8
a 34 25 8
a 25 26 10
a 26 25 10
a 26 35 6
a 35 26 6
a 26 27 4
a 27 26 4
a 27 36 8
a 36 27 8
a 28 37 4
a 37 28 4
a 28 29 7
a 29 28 7
a 29 38 4
a 38 29 4
a 29 30 4
a 30 29 4
a 30 39 1
a 39 30 1
a 30 31 1
a 31 30 1
a 31 40 9
a 40 31 9
a 31 32 9
a 32 31 9
a 32 41 6
a 41 32 6
a 32 33 10
a 33 32 10
a 33 42 1
a 42 33 1
a 33 34 4
a 34 33 4
a 34 43 10
a 43 34 10
a 34 35 9
a 35 34 9
a 35 44 1
a 44 35 1
a 35 36 5
a 36 35 5
a 36 45 10
a 45 36 10
a 37 46 3
a 46 37 3
a 37 38 10
a 38 37 10
a 38 47 1
a 47 38 1
a 38 39 8
a 39 38 8
a 39 48 10
a 48 39 10
a 39 40 8
a 40 39 8
a 40 49 9
a 49 40 9
a 40 41 1
a 41 40 1
a 41 50 7
a 50 41 7
a 41 42 8
a 42 41 8
a 42 51 10
a 51 42 10
a 42 43 10
a 43 42 10
a 43 52 8
a 52 43 8
a 43 44 4
a 44 43 4
a 44 53 10
a 53 44 10
a 44 45 1
a 45 44 1
a 45 54 7
a 54 45 7
a 46 55 4
a 55 46 4
a 46 47 1
a 47 46 1
a 47 56 6
a 56 47 6
a 47 48 10
a 48 47 10
a 48 57 1
a 57 48 1
a 48 49 2
a 49 48 2
a 49 58 5
a 58 49 5
a 49 50 6
a 50 49 6
a 50 59 6
a 59 50 6
a 50 51 7
a 51 50 7
a 51 60 10
a 60 51 10
a 51 52 10
a 52 51 10
a 52 61 8
a 61 52 8
a 52 53 4
a 53 52 4
a 53 62 9
a 62 53 9
a 53 54 4
a 54 53 4
a 54 63 6
a 63 54 6
a 55 64 8
a 64 55 8
a 55 56 1
a 56 55 1
a 56 65 6
a 65 56 6
a 56 57 3
a 57 56 3
a 57 66 1
a 66 57 1
a 57 58 7
a 58 57 7
a 58 67 6
a 67 58 6
a 58 59 9
a 59 58 9
a 59 68 5
a 68 59 5
a 59 60 7
a 60 59 7
a 60 69 1
a 69 60 1
a 60 61 5
a 61 60 5
a 61 70 7
a 70 61 7
a 61 62 5
a 62 61 5
a 62 71 3
a 71 62 3
a 62 63 8
a 63 62 8
a 63 72 6
a 72 63 6
a 64 73 8
a 73 64 8
a 64 65 1
a 65 64 1
a 65 74 2
a 74 65 2
a 65 66 1
a 66 65 1
a 66 75 2
a 75 66 2
a 66 67 9
a 67 66 9
a 67 76 3
a 76 67 3
a 67 68 6
a 68 67 6
a 68 77 4
a 77 68 4
a 68 69 8
a 69 68 8
a 69 78 2
a 78 69 2
a 69 70 2
a 70 69 2
a 70 79 3
a 79 70 3
a 70 71 1
a 71 70 1
a 71 80 9
a 80 71 9
a 71 72 6
a 72 71 6
a 72 81 8
a 81 72 8
a 73 74 3
a 74 73 3
a 74 75 1
a 75 74 1
a 75 76 4
a 76 75 4
a 76 77 5
a 77 76 5
a 77 78 2
a 78 77 2
a 78 79 8
a 79 78 8
a 79 80 9
a 80 79 9
a 80 81 5
a 81 80 5
